0 2095
1 1979
2 1884
3 1884
4 1772
5 1703
6 1703
7 1668
8 1668
9 1668
10 1668
11 1659
12 1617
13 1617
14 1617
15 1581
16 1581
17 1581
18 1581
19 1560
20 1560
21 1533
22 1523
23 1523
24 1523
25 1523
26 1505
27 1505
28 1505
29 1505
30 1469
31 1455
32 1427
33 1427
34 1406
35 1406
36 1406
37 1362
38 1362
39 1362
40 1362
41 1362
42 1362
43 1362
44 1362
45 1362
46 1362
47 1362
48 1362
49 1362
50 1362
51 1362
52 1362
53 1362
54 1362
55 1362
56 1362
57 1362
58 1362
59 1343
60 1343
61 1330
62 1330
63 1330
64 1330
65 1330
66 1324
67 1324
68 1324
69 1324
70 1324
71 1324
72 1324
73 1324
74 1322
75 1322
76 1322
77 1293
78 1293
79 1293
80 1293
81 1291
82 1291
83 1291
84 1291
85 1291
86 1278
87 1250
88 1250
89 1250
90 1250
91 1250
92 1250
93 1250
94 1250
95 1250
96 1247
97 1247
98 1247
99 1247
100 1245
101 1245
102 1245
103 1245
104 1245
105 1245
106 1245
107 1244
108 1244
109 1244
110 1244
111 1244
112 1244
113 1244
114 1244
115 1244
116 1244
117 1244
118 1244
119 1244
120 1244
121 1244
122 1244
123 1244
124 1244
125 1244
126 1244
127 1244
128 1244
129 1244
130 1244
131 1244
132 1244
133 1244
134 1244
135 1239
136 1239
137 1239
138 1239
139 1239
140 1239
141 1239
142 1239
143 1239
144 1239
145 1239
146 1239
147 1239
148 1239
149 1239
150 1239
151 1239
152 1239
153 1239
154 1238
155 1238
156 1238
157 1238
158 1238
159 1238
160 1238
161 1238
162 1238
163 1238
164 1238
165 1238
166 1238
167 1238
168 1238
169 1238
170 1238
171 1238
172 1238
173 1238
174 1238
175 1238
176 1238
177 1238
178 1238
179 1238
180 1238
181 1238
182 1238
183 1237
184 1237
185 1237
186 1237
187 1237
188 1237
189 1237
190 1237
191 1237
192 1237
193 1237
194 1237
195 1237
196 1237
197 1237
198 1237
199 1237
200 1237
201 1237
202 1237
203 1237
204 1237
205 1237
206 1237
207 1237
208 1237
209 1237
210 1237
211 1237
212 1237
213 1237
214 1237
215 1237
216 1237
217 1237
218 1237
219 1237
220 1237
221 1237
222 1237
223 1237
224 1237
225 1237
226 1216
227 1216
228 1216
229 1216
230 1216
231 1216
232 1216
233 1216
234 1216
235 1216
236 1216
237 1216
238 1216
239 1216
240 1216
241 1216
242 1216
243 1202
244 1202
245 1202
246 1202
247 1202
248 1202
249 1202
250 1202
251 1202
252 1202
253 1190
254 1190
255 1190
256 1190
257 1190
258 1190
259 1190
260 1190
261 1190
262 1190
263 1190
264 1190
265 1190
266 1190
267 1190
268 1190
269 1190
270 1190
271 1190
272 1190
273 1190
274 1190
275 1190
276 1190
277 1190
278 1190
279 1190
280 1190
281 1190
282 1190
283 1190
284 1190
285 1190
286 1190
287 1190
288 1190
289 1190
290 1190
291 1190
292 1190
293 1190
294 1190
295 1190
296 1190
297 1190
298 1190
299 1190
300 1190
301 1190
302 1190
303 1190
304 1190
305 1190
306 1190
307 1190
308 1190
309 1190
310 1190
311 1190
312 1190
313 1190
314 1190
315 1190
316 1190
317 1190
318 1190
319 1190
320 1190
321 1190
322 1190
323 1190
324 1190
325 1190
326 1190
327 1190
328 1190
329 1190
330 1190
331 1190
332 1190
333 1190
334 1190
335 1190
336 1190
337 1190
338 1190
339 1190
340 1190
341 1190
342 1190
343 1190
344 1190
345 1190
346 1190
347 1190
348 1190
349 1190
350 1190
351 1190
352 1190
353 1190
354 1190
355 1190
356 1190
357 1190
358 1190
359 1190
360 1190
361 1190
362 1190
363 1190
364 1190
365 1190
366 1190
367 1190
368 1190
369 1190
370 1190
371 1190
372 1190
373 1190
374 1190
375 1190
376 1190
377 1190
378 1190
379 1190
380 1190
381 1190
382 1190
383 1190
384 1190
385 1190
386 1190
387 1190
388 1190
389 1190
390 1190
391 1190
392 1190
393 1190
394 1190
395 1190
396 1190
397 1190
398 1175
399 1175
400 1175
401 1175
402 1175
403 1175
404 1175
405 1175
406 1175
407 1175
408 1175
409 1175
410 1175
411 1175
412 1175
413 1175
414 1175
415 1175
416 1175
417 1175
418 1175
419 1175
420 1175
421 1175
422 1175
423 1175
424 1175
425 1175
426 1175
427 1175
428 1175
429 1175
430 1175
431 1175
432 1175
433 1175
434 1175
435 1175
436 1175
437 1175
438 1175
439 1175
440 1175
441 1175
442 1175
443 1175
444 1175
445 1175
446 1175
447 1175
448 1175
449 1175
450 1175
451 1175
452 1175
453 1175
454 1175
455 1175
456 1175
457 1175
458 1175
459 1175
460 1175
461 1175
462 1175
463 1175
464 1175
465 1175
466 1175
467 1175
468 1175
469 1175
470 1175
471 1175
472 1175
473 1175
474 1175
475 1175
476 1175
477 1175
478 1175
479 1175
480 1175
481 1175
482 1175
483 1175
484 1175
485 1175
486 1175
487 1175
488 1175
489 1175
490 1175
491 1175
492 1175
493 1175
494 1175
495 1175
496 1175
497 1175
498 1175
499 1175
500 1175
501 1175
502 1175
503 1175
504 1175
505 1175
506 1175
507 1175
508 1175
509 1175
510 1175
511 1175
512 1175
513 1175
514 1175
515 1175
516 1175
517 1175
518 1175
519 1175
520 1175
521 1175
522 1175
523 1175
524 1175
525 1175
526 1175
527 1175
528 1175
529 1175
530 1175
531 1175
532 1175
533 1175
534 1175
535 1175
536 1175
537 1175
538 1175
539 1175
540 1175
541 1175
542 1175
543 1175
544 1174
545 1174
546 1174
547 1174
548 1174
549 1174
550 1174
551 1174
552 1174
553 1174
554 1174
555 1174
556 1174
557 1174
558 1174
559 1174
560 1174
561 1174
562 1174
563 1174
564 1174
565 1174
566 1174
567 1174
568 1174
569 1174
570 1174
571 1174
572 1174
573 1174
574 1174
575 1174
576 1174
577 1174
578 1174
579 1174
580 1174
581 1174
582 1174
583 1174
584 1174
585 1174
586 1174
587 1174
588 1174
589 1174
590 1174
591 1174
592 1174
593 1174
594 1174
595 1174
596 1174
597 1174
598 1174
599 1174
600 1174
601 1174
602 1174
603 1174
604 1174
605 1174
606 1174
607 1174
608 1174
609 1174
610 1174
611 1174
612 1174
613 1174
614 1174
615 1174
616 1174
617 1174
618 1174
619 1174
620 1174
621 1174
622 1174
623 1174
624 1174
625 1174
626 1174
627 1174
628 1174
629 1174
630 1174
631 1174
632 1174
633 1174
634 1174
635 1174
636 1174
637 1174
638 1174
639 1174
640 1174
641 1174
642 1174
643 1174
644 1174
645 1174
646 1174
647 1174
648 1174
649 1174
650 1174
651 1174
652 1174
653 1174
654 1174
655 1174
656 1174
657 1174
658 1174
659 1174
660 1174
661 1174
662 1174
663 1174
664 1174
665 1174
666 1174
667 1174
668 1174
669 1174
670 1174
671 1174
672 1174
673 1174
674 1174
675 1174
676 1174
677 1174
678 1174
679 1174
680 1174
681 1174
682 1174
683 1174
684 1174
685 1174
686 1174
687 1174
688 1174
689 1174
690 1174
691 1174
692 1174
693 1174
694 1174
695 1174
696 1174
697 1174
698 1174
699 1174
700 1174
701 1174
702 1174
703 1174
704 1174
705 1174
706 1174
707 1174
708 1174
709 1174
710 1174
711 1174
712 1174
713 1174
714 1174
715 1174
716 1174
717 1174
718 1174
719 1174
720 1174
721 1174
722 1174
723 1174
724 1174
725 1174
726 1174
727 1174
728 1174
729 1174
730 1174
731 1174
732 1174
733 1174
734 1174
735 1174
736 1174
737 1174
738 1174
739 1174
740 1174
741 1174
742 1174
743 1174
744 1174
745 1174
746 1174
747 1174
748 1174
749 1174
750 1174
751 1174
752 1174
753 1174
754 1174
755 1174
756 1174
757 1174
758 1174
759 1174
760 1174
761 1174
762 1174
763 1174
764 1174
765 1174
766 1174
767 1174
768 1174
769 1174
770 1174
771 1174
772 1174
773 1174
774 1174
775 1174
776 1174
777 1174
778 1174
779 1174
780 1174
781 1174
782 1174
783 1174
784 1174
785 1174
786 1174
787 1174
788 1174
789 1174
790 1174
791 1174
792 1174
793 1174
794 1174
795 1174
796 1174
797 1174
798 1174
799 1174
800 1174
801 1174
802 1174
803 1174
804 1174
805 1174
806 1174
807 1174
808 1174
809 1174
810 1174
811 1174
812 1174
813 1174
814 1174
815 1174
816 1174
817 1174
818 1174
819 1174
820 1174
821 1174
822 1174
823 1174
824 1174
825 1174
826 1174
827 1174
828 1174
829 1174
830 1174
831 1174
832 1174
833 1174
834 1174
835 1174
836 1174
837 1174
838 1174
839 1174
840 1174
841 1174
842 1174
843 1174
844 1174
845 1174
846 1174
847 1174
848 1174
849 1174
850 1174
851 1174
852 1174
853 1174
854 1174
855 1174
856 1174
857 1174
858 1174
859 1174
860 1174
861 1174
862 1174
863 1174
864 1174
865 1174
866 1174
867 1174
868 1174
869 1174
870 1174
871 1174
872 1174
873 1174
874 1174
875 1174
876 1174
877 1174
878 1174
879 1174
880 1174
881 1174
882 1174
883 1174
884 1174
885 1174
886 1174
887 1174
888 1174
889 1174
890 1174
891 1174
892 1174
893 1174
894 1174
895 1174
896 1174
897 1174
898 1174
899 1174
900 1174
901 1174
902 1174
903 1174
904 1174
905 1174
906 1174
907 1174
908 1174
909 1174
910 1174
911 1174
912 1174
913 1174
914 1174
915 1174
916 1174
917 1174
918 1174
919 1174
920 1174
921 1174
922 1174
923 1174
924 1174
925 1174
926 1174
927 1174
928 1174
929 1174
930 1174
931 1174
932 1174
933 1174
934 1174
935 1174
936 1174
937 1174
938 1174
939 1174
940 1174
941 1174
942 1174
943 1174
944 1174
945 1174
946 1174
947 1174
948 1174
949 1174
950 1174
951 1174
952 1174
953 1174
954 1174
955 1174
956 1174
957 1174
958 1174
959 1174
960 1174
961 1174
962 1174
963 1174
964 1174
965 1174
966 1174
967 1174
968 1174
969 1174
970 1174
971 1174
972 1174
973 1174
974 1174
975 1174
976 1174
977 1174
978 1174
979 1174
980 1174
981 1174
982 1174
983 1174
984 1174
985 1174
986 1174
987 1174
988 1174
989 1174
990 1174
991 1174
992 1174
993 1174
994 1174
995 1174
996 1174
997 1174
998 1174
999 1174
Best: [[30,16,23,10,18,20,32,22],
       [8,14,7,24,29,5,12],
       [15,28,6,26,11,27,17,2],
       [13,31,25,19,9,3,4,21]], fitness: 1174
